2A/RO/TP1/CP4.sol
Problem:    
Rows:       54
Columns:    72 (36 integer, 36 binary)
Non-zeros:  204
Status:     INTEGER OPTIMAL
Objective:  total = 22 (MINimum)

   No.   Row name        Activity     Lower bound   Upper bound
------ ------------    ------------- ------------- -------------
     1 leave(1)                    1             1             = 
     2 leave(2)                    1             1             = 
     3 leave(3)                    1             1             = 
     4 leave(4)                    1             1             = 
     5 leave(5)                    1             1             = 
     6 leave(6)                    1             1             = 
     7 enter(1)                    1             1             = 
     8 enter(2)                    1             1             = 
     9 enter(3)                    1             1             = 
    10 enter(4)                    1             1             = 
    11 enter(5)                    1             1             = 
    12 enter(6)                    1             1             = 
    13 cap(1,1)                    0                          -0 
    14 cap(1,2)                    0                          -0 
    15 cap(1,3)                    0                          -0 
    16 cap(1,4)                    0                          -0 
    17 cap(1,5)                    0                          -0 
    18 cap(1,6)                    0                          -0 
    19 cap(2,1)                   -5                          -0 
    20 cap(2,2)                    0                          -0 
    21 cap(2,3)                    0                          -0 
    22 cap(2,4)                    0                          -0 
    23 cap(2,5)                    0                          -0 
    24 cap(2,6)                    0                          -0 
    25 cap(3,1)                    0                          -0 
    26 cap(3,2)                    0                          -0 
    27 cap(3,3)                    0                          -0 
    28 cap(3,4)                   -1                          -0 
    29 cap(3,5)                    0                          -0 
    30 cap(3,6)                    0                          -0 
    31 cap(4,1)                    0                          -0 
    32 cap(4,2)                    0                          -0 
    33 cap(4,3)                    0                          -0 
    34 cap(4,4)                    0                          -0 
    35 cap(4,5)                    0                          -0 
    36 cap(4,6)                   -2                          -0 
    37 cap(5,1)                    0                          -0 
    38 cap(5,2)                   -4                          -0 
    39 cap(5,3)                    0                          -0 
    40 cap(5,4)                    0                          -0 
    41 cap(5,5)                    0                          -0 
    42 cap(5,6)                    0                          -0 
    43 cap(6,1)                    0                          -0 
    44 cap(6,2)                    0                          -0 
    45 cap(6,3)                    0                          -0 
    46 cap(6,4)                    0                          -0 
    47 cap(6,5)                   -3                          -0 
    48 cap(6,6)                    0                          -0 
    49 node(1)                    -5            -5             = 
    50 node(2)                     1             1             = 
    51 node(3)                     1             1             = 
    52 node(4)                     1             1             = 
    53 node(5)                     1             1             = 
    54 node(6)                     1             1             = 

   No. Column name       Activity     Lower bound   Upper bound
------ ------------    ------------- ------------- -------------
     1 Choix(1,2)   *              0             0             1 
     2 Choix(1,3)   *              1             0             1 
     3 Choix(1,4)   *              0             0             1 
     4 Choix(1,5)   *              0             0             1 
     5 Choix(1,6)   *              0             0             1 
     6 Choix(2,1)   *              1             0             1 
     7 Choix(2,3)   *              0             0             1 
     8 Choix(2,4)   *              0             0             1 
     9 Choix(2,5)   *              0             0             1 
    10 Choix(2,6)   *              0             0             1 
    11 Choix(3,1)   *              0             0             1 
    12 Choix(3,2)   *              0             0             1 
    13 Choix(3,4)   *              1             0             1 
    14 Choix(3,5)   *              0             0             1 
    15 Choix(3,6)   *              0             0             1 
    16 Choix(4,1)   *              0             0             1 
    17 Choix(4,2)   *              0             0             1 
    18 Choix(4,3)   *              0             0             1 
    19 Choix(4,5)   *              0             0             1 
    20 Choix(4,6)   *              1             0             1 
    21 Choix(5,1)   *              0             0             1 
    22 Choix(5,2)   *              1             0             1 
    23 Choix(5,3)   *              0             0             1 
    24 Choix(5,4)   *              0             0             1 
    25 Choix(5,6)   *              0             0             1 
    26 Choix(6,1)   *              0             0             1 
    27 Choix(6,2)   *              0             0             1 
    28 Choix(6,3)   *              0             0             1 
    29 Choix(6,4)   *              0             0             1 
    30 Choix(6,5)   *              1             0             1 
    31 Choix(1,1)   *              0             0             1 
    32 Choix(2,2)   *              0             0             1 
    33 Choix(3,3)   *              0             0             1 
    34 Choix(4,4)   *              0             0             1 
    35 Choix(5,5)   *              0             0             1 
    36 Choix(6,6)   *              0             0             1 
    37 y(1,1)                      0             0               
    38 y(1,2)                      0             0               
    39 y(1,3)                      5             0               
    40 y(1,4)                      0             0               
    41 y(1,5)                      0             0               
    42 y(1,6)                      0             0               
    43 y(2,1)                      0             0               
    44 y(2,2)                      0             0               
    45 y(2,3)                      0             0               
    46 y(2,4)                      0             0               
    47 y(2,5)                      0             0               
    48 y(2,6)                      0             0               
    49 y(3,1)                      0             0               
    50 y(3,2)                      0             0               
    51 y(3,3)                      0             0               
    52 y(3,4)                      4             0               
    53 y(3,5)                      0             0               
    54 y(3,6)                      0             0               
    55 y(4,1)                      0             0               
    56 y(4,2)                      0             0               
    57 y(4,3)                      0             0               
    58 y(4,4)                      0             0               
    59 y(4,5)                      0             0               
    60 y(4,6)                      3             0               
    61 y(5,1)                      0             0               
    62 y(5,2)                      1             0               
    63 y(5,3)                      0             0               
    64 y(5,4)                      0             0               
    65 y(5,5)                      0             0               
    66 y(5,6)                      0             0               
    67 y(6,1)                      0             0               
    68 y(6,2)                      0             0               
    69 y(6,3)                      0             0               
    70 y(6,4)                      0             0               
    71 y(6,5)                      2             0               
    72 y(6,6)                      0             0               

Integer feasibility conditions:

KKT.PE: max.abs.err = 0.00e+00 on row 0
        max.rel.err = 0.00e+00 on row 0
        High quality

KKT.PB: max.abs.err = 0.00e+00 on row 0
        max.rel.err = 0.00e+00 on row 0
        High quality

End of output
